c Random 5-CNF over 20 variables and 80 clauses
c Generated with `cnfgen`
c (C) 2012-2016 Massimo Lauria <lauria.massimo@gmail.com>
c https://massimolauria.github.io/cnfgen
c
c COMMAND LINE: cnfgen --output tmp-5-20-80.dimacs --output-format dimacs randkcnf 5 20 80
c
c sdimacs generated by gen-sdimacs
c
p cnf 20 80
e 11 12 13 14 15 16 17 18 19 20 0
r 0.37 1 2 3 4 5 6 7 8 9 10 0
-1 -5 -6 14 -18 0
-5 6 -13 18 19 0
-3 -6 -7 -14 18 0
-3 -5 13 -14 -16 0
-6 8 -13 16 -18 0
-5 -6 -7 10 20 0
3 -5 6 -11 18 0
-5 11 -13 15 -18 0
4 -10 11 -15 -19 0
-3 -13 -15 16 -17 0
2 9 12 14 16 0
1 -6 -9 -11 -12 0
1 -4 16 -18 -20 0
-1 2 10 12 -19 0
-3 -6 -14 -15 -18 0
5 16 18 19 20 0
-2 -3 4 -7 -19 0
7 -8 -9 -19 20 0
4 -7 -8 -12 -18 0
5 -6 -10 12 -14 0
1 6 -8 12 -13 0
2 5 -9 14 20 0
2 -5 -8 10 14 0
2 -3 10 15 20 0
-3 -6 -8 12 13 0
3 10 -11 -18 19 0
-7 9 11 -18 -20 0
-3 -4 -7 10 16 0
-8 -9 -17 18 -19 0
5 6 -8 -10 13 0
-3 -5 -9 11 -17 0
1 -2 -10 -14 18 0
-9 -11 -12 -16 18 0
6 -8 -10 -14 19 0
8 9 17 19 -20 0
5 9 -11 -14 17 0
2 -8 -10 13 -19 0
-6 9 -10 15 -18 0
-4 -5 -11 16 -17 0
1 6 -7 -13 -15 0
-7 10 12 14 -16 0
1 4 -7 -15 18 0
-5 7 -10 14 -19 0
4 12 -15 16 17 0
2 -3 -9 -17 -19 0
-5 -7 8 -11 17 0
11 13 -15 -16 -19 0
-1 5 6 7 -16 0
-5 8 13 19 -20 0
3 5 -8 12 16 0
-3 -5 -13 15 20 0
5 7 -15 18 19 0
8 -9 -11 -16 -20 0
2 5 7 13 15 0
3 -4 -10 -13 -19 0
1 6 -15 -16 -17 0
4 7 14 -18 -19 0
-1 -4 -9 -11 16 0
1 6 7 -11 17 0
8 12 13 18 -20 0
-4 7 -11 -14 19 0
-4 -7 11 13 -20 0
-3 -7 11 -15 17 0
1 -6 -9 11 -18 0
-1 8 -11 -19 20 0
-1 2 10 -11 17 0
2 3 -8 -17 -18 0
-2 -6 10 -13 -19 0
9 -10 12 17 -19 0
3 4 -8 -10 -20 0
1 8 11 17 -20 0
-1 -4 -7 -8 16 0
5 7 -12 18 -20 0
5 -10 11 12 -14 0
-1 -3 -15 17 -19 0
3 -5 -13 14 15 0
-4 -8 -11 -14 20 0
-1 -3 9 13 15 0
-1 -3 -5 -17 -18 0
-2 -6 -7 11 -14 0
